&bands 
 prefix ='fgc' 
 outdir='../tmp/',
 filband = 'band.dat'
/
