&DOS
outdir = '../tmp/'
prefix = 'fgc'
fildos = 'dos.dat'
/
