&CONTROL
calculation  = 'bands' ,
pseudo_dir   = '../pseudo/'
outdir       = '../tmp/'
prefix       = 'fgc'
verbosity	 = 'high'		! extended output
/
&SYSTEM
ibrav        = 4
a            = 2.605272201223 
c            = 18.5001714167
nat          = 4
ntyp         = 2
occupations  = 'smearing'
smearing     = 'mv'
degauss      = 0.001
ecutwfc      = 500
/
&ELECTRONS
mixing_beta  = 0.7
conv_thr     = 1.0D-12
/
ATOMIC_SPECIES
C 12.0107 c_pbe_v1.2.uspp.F.UPF
F 18.9984 f_pbe_v1.4.uspp.F.UPF

ATOMIC_POSITIONS crystal
C         0.8333333330      0.6666666660     -0.0132153022
C         0.1666666660      0.3333333330      0.0132153022
F         0.8333333330      0.6666666660     -0.0877999371
F         0.1666666660      0.3333333330      0.0877999371

K_POINTS crystal_b
  4
     0.000000000    0.000000000    0.000000000     70	!G
     0.333333333    0.333333333    0.000000000     40   !K
     0.500000000    0.000000000    0.000000000     70	!M
     0.000000000    0.000000000    0.000000000      0   !G
