&projwfc
outdir = '../tmp/'
prefix = 'fgc'
/
