 &inputph
  tr2_ph=1.0d-14,
  prefix='fgz',
  ldisp=.true.,
  nq1=7, nq2=7, nq3=1
  recover=.true.,
  outdir='/home/ext_chineason_graduate_utm_my/fgzigzag/tmp/',
  fildyn='fgz.dyn'
 /
