 &INPUT
fildyn = 'fgz.dyn'
zasr   = 'crystal'
flfrc  = 'fgz.fc'
loto_2d = .true.
/
