&INPUTPH
tr2_ph = 1d-12
prefix = 'fgc'
ldisp  = .true.
verbosity = 'high'
start_q = 8
last_q  = 8
start_irr = 9
last_irr  = 9
recover = .true.
nq1    = 9
nq2    = 9
nq3    = 1
outdir = '/home/ext_chineason_graduate_utm_my/fgc/tmp/8.9'
fildyn = 'fgc.dyn'
/
