&INPUTPH
tr2_ph = 1d-12
prefix = 'fgc'
ldisp  = .true.
verbosity = 'high'
start_q = 5
last_q  = 5
start_irr = 5
last_irr  = 5
recover = .true.
nq1    = 9
nq2    = 9
nq3    = 1
outdir = '/home/ext_chineason_graduate_utm_my/fgc/tmp/5.5'
fildyn = 'fgc.dyn'
/
