&INPUTPH
tr2_ph = 1d-12
prefix = 'fgc'
ldisp  = .true.
verbosity = 'high'
start_q = 3
last_q  = 3
start_irr = 4
last_irr  = 4
recover = .true.
nq1    = 9
nq2    = 9
nq3    = 1
outdir = '/home/ext_chineason_graduate_utm_my/fgc/tmp/3.4'
fildyn = 'fgc.dyn'
/
