&INPUTPH
tr2_ph = 1d-12
prefix = 'fgc'
ldisp  = .true.
verbosity = 'high'
start_q = 12
last_q  = 12
start_irr = 3
last_irr  = 3
recover = .true.
nq1    = 9
nq2    = 9
nq3    = 1
outdir = '/home/ext_chineason_graduate_utm_my/fgc/tmp/12.3'
fildyn = 'fgc.dyn'
/
