&INPUTPH
tr2_ph = 1d-12
prefix = 'fgc'
ldisp  = .true.
verbosity = 'high'
start_q = 2
last_q  = 2
start_irr = 10
last_irr  = 10
recover = .true.
nq1    = 9
nq2    = 9
nq3    = 1
outdir = '/home/ext_chineason_graduate_utm_my/fgc/tmp/2.10'
fildyn = 'fgc.dyn'
/
