&INPUTPH
tr2_ph = 1d-12
prefix = 'fgc'
ldisp  = .true.
verbosity = 'high' 
start_irr = 0
last_irr  = 0
nq1    = 9
nq2    = 9
nq3    = 1
outdir = '/home/ext_chineason_graduate_utm_my/fgc/tmp/'
fildyn = 'fgc.dyn'
/
