 &INPUT
fildyn = 'fgc.dyn'
zasr   = 'crystal'
flfrc  = 'fgc.fc'
loto_2d = .true.
/
