&bands 
 prefix ='fgz' 
 outdir='../tmp/',
 filband = 'band.dat'
/
