&DOS
outdir = '../tmp/'
prefix = 'fgz'
fildos = 'dos.dat'
/
