&CONTROL
calculation = 'bands' ,
pseudo_dir   = '../pseudo/'
outdir       = '../tmp/'
prefix       = 'fgz'
verbosity	 = 'high'		! extended output
 /
&SYSTEM
ibrav        = 0
nat          = 8
ntyp         = 2
occupations  = 'smearing'
smearing     = 'mv'
degauss      = 0.02
ecutwfc      = 550
/
&ELECTRONS
mixing_beta  = 0.7
conv_thr     = 1.0D-8
/
ATOMIC_SPECIES
C 12.0107 c_pbe_v1.2.uspp.F.UPF
F 18.9984 f_pbe_v1.4.uspp.F.UPF
ATOMIC_POSITIONS (crystal)
C             0.5000000000        0.1415439458        0.0349648566
C            -0.0000000000        0.6415439458       -0.0349648566
C            -0.0000000000        0.3584560542        0.0349648566
C             0.5000000000        0.8584560542       -0.0349648566
F             0.5000000000       -0.0060101030       -0.1212880599
F             0.0000000000        0.4939898970        0.1212880599
F            -0.0000000000        0.5060101030       -0.1212880599
F             0.5000000000        0.0060101030        0.1212880599

CELL_PARAMETERS (angstrom)
   2.630136397   0.000000000   0.000000000
   0.000000000   4.192934272   0.000000000
   0.000000000   0.000000000  14.571830239

K_POINTS crystal_b
  5
   0.500000     0.000000     0.000000   50  !X
   0.000000     0.000000     0.000000   30  !G
   0.000000     0.500000     0.000000   50  !Y
   0.500000     0.500000     0.000000   30  !S
   0.500000     0.000000     0.000000   1  !X
