&projwfc
outdir = '../tmp/'
prefix = 'fgz'
/
